system
1.0
       16.8260000000         0.0000000000         0.0000000000
        0.0000000000        16.1360000000         0.0000000000
        0.0000000000         0.0000000000        19.3465000000
    O   Al    H
   96   64    2
Cartesian
     0.724695997         0.946698940         3.693440004
     0.724695997         9.014699748         3.693440004
     9.137700143         0.946698940         3.693440004
     9.137700143         9.014699748         3.693440004
     3.349550012         0.946698940         3.693440004
     3.349550012         9.014699748         3.693440004
    11.762600092         0.946698940         3.693440004
    11.762600092         9.014699748         3.693440004
    14.656600113         1.067230017         3.738130033
    14.656600113         9.135229856         3.738130033
     6.243620029         1.067230017         3.738130033
     6.243620029         9.135229856         3.738130033
    14.656600113         5.108499850         3.810679990
    14.656600113        13.176499690         3.810679990
     6.243620029         5.108499850         3.810679990
     6.243620029        13.176499690         3.810679990
     0.640565996         5.188849867         3.844339998
     0.640565996        13.256899728         3.844339998
     9.053570141         5.188849867         3.844339998
     9.053570141        13.256899728         3.844339998
     3.433680013         5.188849867         3.844339998
     3.433680013        13.256899728         3.844339998
    11.846700142         5.188849867         3.844339998
    11.846700142        13.256899728         3.844339998
    15.969100145         6.918959821         5.067820035
    15.969100145        14.986999678         5.067820035
     7.556050065         6.918959821         5.067820035
     7.556050065        14.986999678         5.067820035
    13.344200196         6.918959821         5.067820035
    13.344200196        14.986999678         5.067820035
     4.931200089         6.918959821         5.067820035
     4.931200089        14.986999678         5.067820035
     2.037119976         7.209079931         5.106900159
     2.037119976        15.277099618         5.106900159
    10.450100060         7.209079931         5.106900159
    10.450100060        15.277099618         5.106900159
     2.037119976         2.939819879         5.229750050
     2.037119976        11.007799710         5.229750050
    10.450100060         2.939819879         5.229750050
    10.450100060        11.007799710         5.229750050
    16.061600240         3.149099923         5.280050177
    16.061600240        11.217099762         5.280050177
     7.648600133         3.149099923         5.280050177
     7.648600133        11.217099762         5.280050177
    13.251700101         3.149099923         5.280050177
    13.251700101        11.217099762         5.280050177
     4.838650021         3.149099923         5.280050177
     4.838650021        11.217099762         5.280050177
     3.433926514        13.052189078         6.490720896
    11.843408136        13.045124092         6.521004167
     8.998973809         5.007567074         6.552045046
     0.632686044         4.941675719         6.499692642
     3.482407605         5.052002390         6.565649312
     9.049480077        13.065659894         6.465936675
    11.844682873         4.943707887         6.507019355
     0.641263602        13.035178668         6.522048491
     3.327708686         1.213909965         6.548319104
     9.142835438         1.213443473         6.546925382
     9.054539151         9.255969249         6.474073232
     3.424934531         9.279137963         6.571973102
    11.666800418         9.221291372         6.589309114
    11.763496076         1.165422415         6.534165204
     0.742598189         9.242348690         6.547648167
    14.608909508         8.959597245         6.521247932
     6.301476568         8.975127984         6.561065545
    14.650147510         0.951209920         6.522382992
     0.706984445         1.163718131         6.532447622
     6.235500979         1.032397073         6.599545348
     6.114159606         5.020025841         6.659474228
    14.619558347         5.071762535         6.646100379
     6.202986248        13.199598373         6.556607338
    14.658082147        13.129643328         6.717382560
    10.460869373         2.804300234         7.899259495
    10.386855331        10.860283756         7.892182159
     2.035408772        10.864745521         7.896257305
     2.001801192         2.806960253         7.898178413
     4.902212088        15.396074862         7.968292839
     7.699661659         2.706515269         8.013199162
    13.205917564         2.641102831         7.977059319
    16.021383071        15.455883268         8.345056261
    13.182165982        10.744085679         8.000109707
     4.804752361        10.925606962         8.007654648
    16.058258596        10.709362944         7.992597460
    13.134712960         7.340714351         7.958586700
     4.743824236         7.625290294         8.312745671
    15.900985804         7.333378119         8.019679466
     7.693621798        11.113655418         8.105111483
    16.081406630         2.643022208         7.973954399
     7.268243014         6.953149422         7.772061092
    13.268720273        15.452445009         8.340359318
     2.038034637        15.418959260         8.021346553
    10.451665887        15.417011160         8.020312290
    10.049678272         7.337923307         7.915287104
     1.986485998         7.336495110         8.016872288
     7.588010379        15.400166145         7.960281840
     4.744688925         2.684600322         8.035666833
     0.598500996         7.005439904         3.721300125
     0.598500996        15.073399727         3.721300125
     9.011500093         7.005439904         3.721300125
     9.011500093        15.073399727         3.721300125
     3.475750061         7.005439904         3.721300125
     3.475750061        15.073399727         3.721300125
    11.888700195         7.005439904         3.721300125
    11.888700195        15.073399727         3.721300125
    14.656600113         7.109839822         3.771600059
    14.656600113        15.177799645         3.771600059
     6.243620029         7.109839822         3.771600059
     6.243620029        15.177799645         3.771600059
     2.037119976         4.099999870         3.810679990
     2.037119976        12.167999710         3.810679990
    10.450100060         4.099999870         3.810679990
    10.450100060        12.167999710         3.810679990
    16.128900203         4.974079873         5.123730067
    16.128900203        13.042099721         5.123730067
     7.715900096         4.974079873         5.123730067
     7.715900096        13.042099721         5.123730067
    13.184300192         4.974079873         5.123730067
    13.184300192        13.042099721         5.123730067
     4.771350058         4.974079873         5.123730067
     4.771350058        13.042099721         5.123730067
     2.037119976         1.052389899         5.179450116
     2.037119976         9.120389739         5.179450116
    10.450100060         1.052389899         5.179450116
    10.450100060         9.120389739         5.179450116
    14.656600113         2.092679896         5.224140145
    14.656600113        10.160699745         5.224140145
     6.243620029         2.092679896         5.224140145
     6.243620029        10.160699745         5.224140145
     3.398818728         3.164801218         6.686493551
     9.070397993         3.149017952         6.679197598
    11.819885387        11.228135172         6.654119697
     3.420196329        11.245765204         6.649833093
     0.589249556        11.215646554         6.687332028
     8.906779274        11.265623618         6.790082452
    11.886236195         3.115727932         6.681019458
     0.585769771         3.123434324         6.685165607
     2.036566400        14.202865126         6.726918450
    10.437910296        14.200578977         6.723943152
     1.949998144         6.160570740         6.727381025
    10.518702355         6.130762869         6.708405203
    14.547882110         6.885571533         6.972204797
    14.646922134        14.446565838         8.017117022
     6.242396106        14.972663487         6.878207696
     5.490069797         6.666363493         7.104378540
     4.730989027         0.880273322         7.559879510
     7.816271394         8.049808598         6.491240736
     4.905170435         9.187066594         7.635302809
    13.213988492         0.765724990         7.472644398
    13.139374771         8.993781845         7.536847501
    16.104771214         8.939095812         7.513218846
    16.084291616         0.768145067         7.474884723
     7.735485224         0.888951586         7.560863860
    14.643462204         3.556969909         7.588065619
     6.257185151        11.864446702         7.706945608
    14.630109763        11.788775802         7.953400290
    10.472242066         0.966575910         7.798947504
     1.998472841         0.970983458         7.796981319
    10.281187209         9.067542242         7.794979924
     2.086686680         9.032623455         7.786443280
     6.208739394         3.474221437         7.527826421
    14.637392897        13.009039640         9.139376942
     7.883359349         6.174899831         7.777513129
