system
1.0
       16.8260000000         0.0000000000         0.0000000000
        0.0000000000        16.1360000000         0.0000000000
        0.0000000000         0.0000000000        19.3465000000
    O   Al    H
   96   64    2
Cartesian
     0.724695997         0.946698940         3.693440004
     0.724695997         9.014699748         3.693440004
     9.137700143         0.946698940         3.693440004
     9.137700143         9.014699748         3.693440004
     3.349550012         0.946698940         3.693440004
     3.349550012         9.014699748         3.693440004
    11.762600092         0.946698940         3.693440004
    11.762600092         9.014699748         3.693440004
    14.656600113         1.067230017         3.738130033
    14.656600113         9.135229856         3.738130033
     6.243620029         1.067230017         3.738130033
     6.243620029         9.135229856         3.738130033
    14.656600113         5.108499850         3.810679990
    14.656600113        13.176499690         3.810679990
     6.243620029         5.108499850         3.810679990
     6.243620029        13.176499690         3.810679990
     0.640565996         5.188849867         3.844339998
     0.640565996        13.256899728         3.844339998
     9.053570141         5.188849867         3.844339998
     9.053570141        13.256899728         3.844339998
     3.433680013         5.188849867         3.844339998
     3.433680013        13.256899728         3.844339998
    11.846700142         5.188849867         3.844339998
    11.846700142        13.256899728         3.844339998
    15.969100145         6.918959821         5.067820035
    15.969100145        14.986999678         5.067820035
     7.556050065         6.918959821         5.067820035
     7.556050065        14.986999678         5.067820035
    13.344200196         6.918959821         5.067820035
    13.344200196        14.986999678         5.067820035
     4.931200089         6.918959821         5.067820035
     4.931200089        14.986999678         5.067820035
     2.037119976         7.209079931         5.106900159
     2.037119976        15.277099618         5.106900159
    10.450100060         7.209079931         5.106900159
    10.450100060        15.277099618         5.106900159
     2.037119976         2.939819879         5.229750050
     2.037119976        11.007799710         5.229750050
    10.450100060         2.939819879         5.229750050
    10.450100060        11.007799710         5.229750050
    16.061600240         3.149099923         5.280050177
    16.061600240        11.217099762         5.280050177
     7.648600133         3.149099923         5.280050177
     7.648600133        11.217099762         5.280050177
    13.251700101         3.149099923         5.280050177
    13.251700101        11.217099762         5.280050177
     4.838650021         3.149099923         5.280050177
     4.838650021        11.217099762         5.280050177
     3.435688701        13.023020192         6.493757716
    11.847555240        13.035386661         6.514925496
     9.070963683         4.970693088         6.466911932
     0.627545701         4.952870553         6.497297739
     3.422757751         4.967881228         6.513575304
     9.056490294        13.056956620         6.451756657
    11.867705553         4.943885383         6.505533157
     0.644901720        13.036299152         6.508993472
     3.336002221         1.181832566         6.521249867
     9.130791555         1.192025031         6.528699817
     9.059670240         9.175368640         6.475105949
     3.410334779         9.217361611         6.552649624
    11.697210553         9.235441353         6.553561425
    11.758750135         1.163081566         6.529620131
     0.742005072         9.245530064         6.541416659
    14.637567720         8.960048892         6.517477300
     6.342466387         9.043878315         6.551822561
    14.652810225         0.950901884         6.520802189
     0.714274646         1.159801279         6.526366630
     6.239781682         0.896217303         6.507550610
     6.163827435         5.023624007         6.677943558
    14.658416648         5.073390980         6.652698116
     6.195081225        13.179424501         6.580075610
    14.659089015        13.140261784         6.704383259
    10.441753859         2.793712113         7.889929259
    10.393653709        10.832104976         7.872836432
     2.043958231        10.846631571         7.889510213
     2.036382661         2.786865932         7.891357030
     4.868773946        15.403829340         8.006988548
     7.659725821         2.675837506         7.996582646
    13.207536562         2.642677704         7.970286883
    16.020267843        15.460462664         8.337800936
    13.197233497        10.729178274         7.989598366
     4.809348383        10.777406034         7.969014463
    16.069261623        10.743098640         7.990623537
    13.256826815         7.341028196         8.018474952
     4.892312174         7.502375123         8.439643623
    16.010106622         7.366783995         8.051624600
     7.717772830        11.150806783         8.123215745
    16.097204729         2.644148985         7.971672286
     7.630116940         7.008497837         7.964117477
    13.266108878        15.458164253         8.332795803
     2.025401508        15.407087521         8.016184133
    10.457616402        15.409694130         8.011492800
    10.387467125         7.328427433         8.006241580
     2.046301924         7.318925749         8.017692580
     7.595506194        15.426281776         8.027539175
     4.792012050         2.636915216         8.001983609
     0.598500996         7.005439904         3.721300125
     0.598500996        15.073399727         3.721300125
     9.011500093         7.005439904         3.721300125
     9.011500093        15.073399727         3.721300125
     3.475750061         7.005439904         3.721300125
     3.475750061        15.073399727         3.721300125
    11.888700195         7.005439904         3.721300125
    11.888700195        15.073399727         3.721300125
    14.656600113         7.109839822         3.771600059
    14.656600113        15.177799645         3.771600059
     6.243620029         7.109839822         3.771600059
     6.243620029        15.177799645         3.771600059
     2.037119976         4.099999870         3.810679990
     2.037119976        12.167999710         3.810679990
    10.450100060         4.099999870         3.810679990
    10.450100060        12.167999710         3.810679990
    16.128900203         4.974079873         5.123730067
    16.128900203        13.042099721         5.123730067
     7.715900096         4.974079873         5.123730067
     7.715900096        13.042099721         5.123730067
    13.184300192         4.974079873         5.123730067
    13.184300192        13.042099721         5.123730067
     4.771350058         4.974079873         5.123730067
     4.771350058        13.042099721         5.123730067
     2.037119976         1.052389899         5.179450116
     2.037119976         9.120389739         5.179450116
    10.450100060         1.052389899         5.179450116
    10.450100060         9.120389739         5.179450116
    14.656600113         2.092679896         5.224140145
    14.656600113        10.160699745         5.224140145
     6.243620029         2.092679896         5.224140145
     6.243620029        10.160699745         5.224140145
     3.463201230         3.146619981         6.672726194
     9.013458976         3.151738804         6.673179096
    11.825578464        11.209228622         6.664254361
     3.460656971        11.198038145         6.681169394
     0.606878157        11.219017203         6.689820375
     8.905133523        11.243562640         6.804115243
    11.861881401         3.125697398         6.688956554
     0.621641121         3.134718874         6.692448016
     2.049930283        14.185820185         6.742472843
    10.438318158        14.185225090         6.737303845
     2.016070818         6.122638716         6.738360938
    10.497867728         6.103668590         6.761359864
    14.647834777         6.860386949         7.067339471
    14.644663244        14.455667187         8.016644387
     6.244743333        14.939371209         7.001075386
     6.071705756         6.310289904         8.048628021
     4.768930648         0.882391011         7.516687287
     7.747723278         7.978671107         6.582374361
     4.920124543         8.961336706         7.557348020
    13.209072103         0.779880134         7.477146135
    13.146635022         8.963547177         7.521443430
    16.112268206         8.977695867         7.527097832
    16.093917939         0.780655630         7.479296112
     7.697057836         0.904272879         7.532828072
    14.652711793         3.547757706         7.582679747
     6.233362900        11.760815019         7.680191913
    14.623767034        11.796288078         7.947236301
    10.445241889         0.961855162         7.789607400
     2.026509164         0.960662227         7.787837196
    10.294246709         9.027788464         7.791102691
     2.085411101         9.011652464         7.784541713
     6.209558989         3.700281306         7.936476745
    14.625948693        13.019594681         9.128585658
     6.066577192         4.901767520         9.132580130
