system
1.0
       16.8260002136         0.0000000000         0.0000000000
        0.0000000000        16.1359996796         0.0000000000
        0.0000000000         0.0000000000        19.3465003967
    O   Al    H
   96   64    2
Direct
     0.043070000         0.058670000         0.190910000
     0.043070000         0.558670000         0.190910000
     0.543070000         0.058670000         0.190910000
     0.543070000         0.558670000         0.190910000
     0.199070000         0.058670000         0.190910000
     0.199070000         0.558670000         0.190910000
     0.699070000         0.058670000         0.190910000
     0.699070000         0.558670000         0.190910000
     0.871070000         0.066140000         0.193220000
     0.871070000         0.566140000         0.193220000
     0.371070000         0.066140000         0.193220000
     0.371070000         0.566140000         0.193220000
     0.871070000         0.316590000         0.196970000
     0.871070000         0.816590000         0.196970000
     0.371070000         0.316590000         0.196970000
     0.371070000         0.816590000         0.196970000
     0.038070000         0.321570000         0.198710000
     0.038070000         0.821570000         0.198710000
     0.538070000         0.321570000         0.198710000
     0.538070000         0.821570000         0.198710000
     0.204070000         0.321570000         0.198710000
     0.204070000         0.821570000         0.198710000
     0.704070000         0.321570000         0.198710000
     0.704070000         0.821570000         0.198710000
     0.949070000         0.428790000         0.261950000
     0.949070000         0.928790000         0.261950000
     0.449070000         0.428790000         0.261950000
     0.449070000         0.928790000         0.261950000
     0.793070000         0.428790000         0.261950000
     0.793070000         0.928790000         0.261950000
     0.293070000         0.428790000         0.261950000
     0.293070000         0.928790000         0.261950000
     0.121070000         0.446770000         0.263970000
     0.121070000         0.946770000         0.263970000
     0.621070000         0.446770000         0.263970000
     0.621070000         0.946770000         0.263970000
     0.121070000         0.182190000         0.270320000
     0.121070000         0.682190000         0.270320000
     0.621070000         0.182190000         0.270320000
     0.621070000         0.682190000         0.270320000
     0.954570000         0.195160000         0.272920000
     0.954570000         0.695160000         0.272920000
     0.454570000         0.195160000         0.272920000
     0.454570000         0.695160000         0.272920000
     0.787570000         0.195160000         0.272920000
     0.787570000         0.695160000         0.272920000
     0.287570000         0.195160000         0.272920000
     0.287570000         0.695160000         0.272920000
     0.204799160         0.807349060         0.336038790
     0.703997620         0.807945460         0.336528550
     0.538419450         0.307964680         0.336460070
     0.037607970         0.307297870         0.335967990
     0.204001960         0.307951030         0.336529130
     0.537609500         0.807245920         0.335972100
     0.704836050         0.307276370         0.336036240
     0.038382620         0.807921170         0.336467680
     0.198838900         0.073524960         0.337602060
     0.542761030         0.073519090         0.337595320
     0.543006160         0.571964280         0.337650920
     0.198920450         0.571949420         0.337499420
     0.698982860         0.573483420         0.337451580
     0.698828180         0.071982330         0.337607080
     0.042844070         0.573548760         0.337707050
     0.871125370         0.555351550         0.336512290
     0.371195450         0.559194430         0.337387390
     0.871030380         0.059155710         0.337323210
     0.042868540         0.071937340         0.337493310
     0.370951450         0.055331650         0.336516520
     0.371246980         0.314278940         0.347067830
     0.871304940         0.314337830         0.344262630
     0.371243440         0.814352060         0.344290540
     0.871155340         0.814241020         0.347070320
     0.620654460         0.172858200         0.408069400
     0.621512910         0.672875130         0.408063550
     0.120796440         0.672875530         0.408081830
     0.121372960         0.172882780         0.408066070
     0.289054340         0.956456450         0.416118130
     0.455434160         0.165758920         0.413582900
     0.784948520         0.163969650         0.412038390
     0.952369750         0.958399250         0.430969680
     0.786183480         0.665473040         0.413540780
     0.285001150         0.663932250         0.412007950
     0.955518680         0.665817310         0.413642120
     0.789490440         0.456335450         0.416125060
     0.288747240         0.458237760         0.430659130
     0.951968410         0.456859340         0.416685210
     0.457299310         0.664071300         0.412251530
     0.957194120         0.163969350         0.412170920
     0.453052990         0.458344200         0.430901420
     0.788331630         0.958246340         0.430618470
     0.120346700         0.954810590         0.414322540
     0.621431930         0.954760090         0.414267510
     0.620882860         0.454786830         0.414332590
     0.121572030         0.454763190         0.414262000
     0.451668630         0.956851950         0.416730580
     0.286095080         0.165676310         0.413576080
     0.035570000         0.434150000         0.192350000
     0.035570000         0.934150000         0.192350000
     0.535570000         0.434150000         0.192350000
     0.535570000         0.934150000         0.192350000
     0.206570000         0.434150000         0.192350000
     0.206570000         0.934150000         0.192350000
     0.706570000         0.434150000         0.192350000
     0.706570000         0.934150000         0.192350000
     0.871070000         0.440620000         0.194950000
     0.871070000         0.940620000         0.194950000
     0.371070000         0.440620000         0.194950000
     0.371070000         0.940620000         0.194950000
     0.121070000         0.254090000         0.196970000
     0.121070000         0.754090000         0.196970000
     0.621070000         0.254090000         0.196970000
     0.621070000         0.754090000         0.196970000
     0.958570000         0.308260000         0.264840000
     0.958570000         0.808260000         0.264840000
     0.458570000         0.308260000         0.264840000
     0.458570000         0.808260000         0.264840000
     0.783570000         0.308260000         0.264840000
     0.783570000         0.808260000         0.264840000
     0.283570000         0.308260000         0.264840000
     0.283570000         0.808260000         0.264840000
     0.121070000         0.065220000         0.267720000
     0.121070000         0.565220000         0.267720000
     0.621070000         0.065220000         0.267720000
     0.621070000         0.565220000         0.267720000
     0.871070000         0.129690000         0.270030000
     0.871070000         0.629690000         0.270030000
     0.371070000         0.129690000         0.270030000
     0.371070000         0.629690000         0.270030000
     0.206408820         0.195411610         0.345150210
     0.535509240         0.195459040         0.345260580
     0.706508780         0.695384750         0.345168030
     0.204601960         0.694520960         0.345843280
     0.035580040         0.695437830         0.345240830
     0.537589140         0.694474160         0.345862710
     0.704545770         0.194482590         0.345838300
     0.037479550         0.194496420         0.345883070
     0.121659430         0.879624740         0.348295870
     0.620589540         0.879586680         0.348259970
     0.120619540         0.379596810         0.348260260
     0.621776910         0.379613780         0.348293820
     0.871082340         0.424512470         0.366014030
     0.870482680         0.896757950         0.414039270
     0.370703740         0.924513710         0.366106250
     0.370989310         0.396850130         0.414018040
     0.284307910         0.056360440         0.389145780
     0.456992850         0.548950120         0.386840810
     0.285093960         0.548760740         0.386471600
     0.785029390         0.048865370         0.386554330
     0.784409910         0.556143300         0.389044640
     0.957471820         0.556521740         0.389414130
     0.956877500         0.048737620         0.386669990
     0.457371790         0.056444720         0.389299820
     0.871091840         0.219423750         0.391769480
     0.371144620         0.719394970         0.391738440
     0.870778730         0.732112140         0.412087450
     0.620816260         0.059572000         0.402644530
     0.120946210         0.059627770         0.402649820
     0.621123120         0.559596910         0.402635390
     0.120912760         0.559582020         0.402647630
     0.370794200         0.232204210         0.412123770
     0.870296140         0.807827360         0.472662850
     0.370812950         0.307977040         0.472650810
