system
1.0
       16.8260002136         0.0000000000         0.0000000000
        0.0000000000        16.1359996796         0.0000000000
        0.0000000000         0.0000000000        19.3465003967
    O   Al    H
   96   64    2
Direct
     0.04307000         0.05867000         0.19091000
     0.04307000         0.55867000         0.19091000
     0.54307000         0.05867000         0.19091000
     0.54307000         0.55867000         0.19091000
     0.19907000         0.05867000         0.19091000
     0.19907000         0.55867000         0.19091000
     0.69907000         0.05867000         0.19091000
     0.69907000         0.55867000         0.19091000
     0.87107000         0.06614000         0.19322000
     0.87107000         0.56614000         0.19322000
     0.37107000         0.06614000         0.19322000
     0.37107000         0.56614000         0.19322000
     0.87107000         0.31659000         0.19697000
     0.87107000         0.81659000         0.19697000
     0.37107000         0.31659000         0.19697000
     0.37107000         0.81659000         0.19697000
     0.03807000         0.32157000         0.19871000
     0.03807000         0.82157000         0.19871000
     0.53807000         0.32157000         0.19871000
     0.53807000         0.82157000         0.19871000
     0.20407000         0.32157000         0.19871000
     0.20407000         0.82157000         0.19871000
     0.70407000         0.32157000         0.19871000
     0.70407000         0.82157000         0.19871000
     0.94907000         0.42879000         0.26195000
     0.94907000         0.92879000         0.26195000
     0.44907000         0.42879000         0.26195000
     0.44907000         0.92879000         0.26195000
     0.79307000         0.42879000         0.26195000
     0.79307000         0.92879000         0.26195000
     0.29307000         0.42879000         0.26195000
     0.29307000         0.92879000         0.26195000
     0.12107000         0.44677000         0.26397000
     0.12107000         0.94677000         0.26397000
     0.62107000         0.44677000         0.26397000
     0.62107000         0.94677000         0.26397000
     0.12107000         0.18219000         0.27032000
     0.12107000         0.68219000         0.27032000
     0.62107000         0.18219000         0.27032000
     0.62107000         0.68219000         0.27032000
     0.95457000         0.19516000         0.27292000
     0.95457000         0.69516000         0.27292000
     0.45457000         0.19516000         0.27292000
     0.45457000         0.69516000         0.27292000
     0.78757000         0.19516000         0.27292000
     0.78757000         0.69516000         0.27292000
     0.28757000         0.19516000         0.27292000
     0.28757000         0.69516000         0.27292000
     0.20501604         0.80765373         0.33642622
     0.70366961         0.80817220         0.33695325
     0.53791874         0.30903895         0.33670390
     0.03796423         0.30742357         0.33639363
     0.20483719         0.30842662         0.33639218
     0.53762454         0.80869399         0.33611106
     0.70490829         0.30689320         0.33642109
     0.03838644         0.80776243         0.33706580
     0.19845870         0.07451917         0.33844650
     0.54307045         0.07497235         0.33861677
     0.54177632         0.57508362         0.33888408
     0.19878668         0.57365549         0.33853359
     0.69793296         0.57244730         0.33872050
     0.69898164         0.07209595         0.33793609
     0.04231632         0.57312247         0.33787489
     0.86972928         0.55536404         0.33661394
     0.37137455         0.55636604         0.33805235
     0.87117738         0.05941444         0.33775696
     0.04243057         0.07221124         0.33810089
     0.37107944         0.05930590         0.33872749
     0.37231867         0.31718885         0.34164842
     0.86975974         0.31446485         0.34380715
     0.37124331         0.81673839         0.34178729
     0.87124886         0.81406665         0.34788076
     0.62150291         0.17359500         0.40840394
     0.62113032         0.67331158         0.40866156
     0.12011559         0.67333848         0.40831204
     0.12047469         0.17331434         0.40852476
     0.29130922         0.95531478         0.41321769
     0.45586857         0.16918131         0.41306710
     0.78502955         0.16400299         0.41232792
     0.95223183         0.95935519         0.43261263
     0.78552948         0.66633912         0.41401671
     0.28571595         0.66659664         0.41332546
     0.95484272         0.66424176         0.41381724
     0.78450031         0.45651483         0.41355526
     0.29929703         0.45579258         0.41375609
     0.94772577         0.45503594         0.41478512
     0.45467183         0.67097287         0.41390486
     0.95672373         0.16470211         0.41277373
     0.45459023         0.45870413         0.41349332
     0.78841339         0.95795919         0.43080053
     0.12103737         0.95495955         0.41463437
     0.62140881         0.95527022         0.41490240
     0.60687693         0.45322079         0.41334106
     0.12310679         0.45559928         0.41537699
     0.45150361         0.95610658         0.41356055
     0.28516584         0.16791084         0.41317010
     0.03557000         0.43415000         0.19235000
     0.03557000         0.93415000         0.19235000
     0.53557000         0.43415000         0.19235000
     0.53557000         0.93415000         0.19235000
     0.20657000         0.43415000         0.19235000
     0.20657000         0.93415000         0.19235000
     0.70657000         0.43415000         0.19235000
     0.70657000         0.93415000         0.19235000
     0.87107000         0.44062000         0.19495000
     0.87107000         0.94062000         0.19495000
     0.37107000         0.44062000         0.19495000
     0.37107000         0.94062000         0.19495000
     0.12107000         0.25409000         0.19697000
     0.12107000         0.75409000         0.19697000
     0.62107000         0.25409000         0.19697000
     0.62107000         0.75409000         0.19697000
     0.95857000         0.30826000         0.26484000
     0.95857000         0.80826000         0.26484000
     0.45857000         0.30826000         0.26484000
     0.45857000         0.80826000         0.26484000
     0.78357000         0.30826000         0.26484000
     0.78357000         0.80826000         0.26484000
     0.28357000         0.30826000         0.26484000
     0.28357000         0.80826000         0.26484000
     0.12107000         0.06522000         0.26772000
     0.12107000         0.56522000         0.26772000
     0.62107000         0.06522000         0.26772000
     0.62107000         0.56522000         0.26772000
     0.87107000         0.12969000         0.27003000
     0.87107000         0.62969000         0.27003000
     0.37107000         0.12969000         0.27003000
     0.37107000         0.62969000         0.27003000
     0.20284841         0.19570661         0.34478340
     0.53876039         0.19562280         0.34469926
     0.70704925         0.69621991         0.34477868
     0.20206421         0.69559769         0.34395114
     0.03441956         0.69537812         0.34499693
     0.53995682         0.69749543         0.34362120
     0.70600004         0.19359842         0.34540095
     0.03622261         0.19456956         0.34583696
     0.12139611         0.88035417         0.34768207
     0.62105865         0.88119324         0.34763547
     0.12041297         0.38048459         0.34808146
     0.62375824         0.37882437         0.34480195
     0.86702323         0.42624779         0.36058476
     0.87102890         0.89703840         0.41414546
     0.37165478         0.92892876         0.35757054
     0.36926452         0.43049047         0.34757483
     0.28292361         0.05591146         0.39021922
     0.45664708         0.56378481         0.38995705
     0.28214909         0.55537033         0.39110513
     0.78531377         0.04833244         0.38645018
     0.78456374         0.55778206         0.39001906
     0.95667933         0.55485279         0.38897101
     0.95648782         0.04924754         0.38742083
     0.45860159         0.05689173         0.39079434
     0.87081728         0.22021042         0.39179593
     0.36856763         0.72731513         0.39255333
     0.87117173         0.73230780         0.41264903
     0.62181620         0.05996558         0.40309447
     0.11981599         0.05973021         0.40295069
     0.62125802         0.56020957         0.40245455
     0.11917391         0.56034369         0.40269021
     0.36999521         0.22461596         0.39056280
     0.87128868         0.80760294         0.47339861
     0.51352842         0.44064158         0.41543625
